Y8 Sb46 Te81                            
   1.00000000000000     
    13.3696666956668277    0.0211780677536473   -0.0032305071930911
    -6.6663494448364577   11.4978522399489727   -0.0033907556389486
    -0.0176921439835284   -0.0106443788315265   31.6946395531418794
   Y    Sb   Te
     8    46    81
Direct
  0.5583368243531979  0.7835140959604132  0.7210760949354622
  0.4456710003420881  0.5570162206305156  0.9460873704602193
  0.1058734358601967  0.8966083526613886  0.2772346937884649
  0.8836863376307207  0.1044788228956364  0.7228335031544830
  0.0046573030721007  0.6560338650551998  0.5011452930727671
  0.2253522812258808  0.1125920027885812  0.0552754494447143
  0.6814873489218840  0.3350813578527436  0.5025361221088360
  0.1198503682733403  0.2249041724929768  0.9406928564561454
  0.2366950902401541  0.7834192454606992  0.7200573794336762
  0.4367858500245205  0.2181708596610008  0.2743948713636044
  0.7754486545868389  0.5623945262623451  0.2737479718829405
  0.8973997005726346  0.7728219064954658  0.7216730367848356
  0.2189747649183360  0.7865203010644137  0.0588378002566898
  0.3337250473077233  0.0055850295025337  0.1634931408713598
  0.8958502583953276  0.4346066444835799  0.3897259008521061
  0.6644945727739753  0.9900386911653456  0.5110218592698601
  0.1124137210140788  0.5502879075290750  0.2771685359839964
  0.3334561974998493  0.3353969723533723  0.1550528393667108
  0.3323471893835617  0.6656483104998117  0.8272806611538641
  0.6847098293817382  0.9984278651440164  0.1677501686541731
  0.6538907613531890  0.6617897328647615  0.4993736234314454
  0.2172162716934807  0.7653160835753283  0.3916375645726404
  0.2209027091246725  0.4361745809058846  0.0523062829598828
  0.8676831376577425  0.4331267292386372  0.7175054096387115
  0.2285884484557172  0.4486466651647447  0.7168115018413133
  0.9787527321922411  0.6422273590912795  0.1626243460702241
  0.4448826441422895  0.8936706347620316  0.2776221104458401
  0.7731138132401796  0.8867619676621885  0.9456022054799149
  0.7634247785705455  0.8805212698975851  0.6166714182854562
  0.3375396392368302  0.6683856668612407  0.1633338225852512
  0.2296510414713353  0.1186931831547184  0.7239116909699064
  0.4324503436883660  0.5365937980959217  0.2766626434471959
  0.6622788855798589  0.3146723979420969  0.8418388784835926
  0.6612626086889648  0.6627186338248023  0.8381094733983545
  0.8507529110066443  0.0966896726334241  0.0584195125262212
  0.5583602127519143  0.1188537101128020  0.3943605719493846
  0.5462628044099347  0.1374567777268894  0.7245310413063137
  0.7802589395510182  0.2109687563556051  0.2803383741687924
  0.1162657902568540  0.8877981404624364  0.6075732983772753
  0.1391370147337767  0.2508016354467628  0.6091611269981954
  0.7524145346451974  0.2099136618035260  0.9472652159541610
  0.7694712602923772  0.5523538092981042  0.9486259411227067
  0.1243606873833940  0.5688135410895896  0.9464572559721844
  0.1276022597596693  0.9041664157538207  0.9465988233837521
  0.9996482238643978  0.0256068630434072  0.4973836404997556
  0.7775790439638826  0.5496136653230579  0.6030939902245365
  0.5408459068740612  0.4404247613791625  0.3872911459852943
  0.8706748246586145  0.4361274575828773  0.0579159565211569
  0.0147579262423321  0.0145536075902939  0.8375352026298089
  0.8912706476369507  0.7918109374589690  0.3892981312447148
  0.3060984694844890  0.3433071326535853  0.4967002167526644
  0.7898558165420582  0.8982620325017052  0.2784683775144430
  0.3395914851327362  0.9916991710735985  0.5021302007220143
  0.0033909887281993  0.6643797526287401  0.8331282521019929
  0.0071356915512126  0.0090055926854831  0.9981112999392749
  0.3313437661658156  0.9981193663800951  0.0000873882826298
  0.6580014073455942  0.9894878774823752  0.9966829298064255
  0.0044506419081287  0.3310984664796663  0.9964969339896683
  0.3360509077720195  0.3368169185319871  0.0019619605976118
  0.6665378747473127  0.3322906045522203  0.0009667816262677
  0.9991284535622640  0.6657674128230369  0.0010124992217513
  0.3328949885949228  0.6675517861071540  0.9994465072115517
  0.6664366157556287  0.6666520174474257  0.9990107191420705
  0.9931566294746830  0.0009201248520867  0.3344925269331043
  0.3282130863390620  0.9998900749622877  0.3318612194329162
  0.6659747060036949  0.0003301878754414  0.3314146896799670
  0.9976122686902187  0.3347297930764412  0.3315177633137552
  0.3346015687712907  0.3360605652412758  0.3340980171660917
  0.6668639517755892  0.3335420452650695  0.3326378552447977
  0.0003858135161536  0.6684510117643612  0.3310468989585047
  0.3303122309408053  0.6704898944170807  0.3330420183027485
  0.6680331754571895  0.6688860966968377  0.3354284615582301
  0.0007505250429460  0.0000657368298320  0.6689265231645791
  0.3302655739710261  0.9997184089564186  0.6656608877570847
  0.6700765717597719  0.0008304433702193  0.6645344468676058
  0.0113227474784026  0.3325043066617255  0.6693350331496504
  0.3321741735344759  0.3295822529173620  0.6685997852187526
  0.6798112120474897  0.3188061252174492  0.6605716536119672
  0.0051671201871457  0.6647546511951177  0.6650288927535399
  0.3328320918077310  0.6614662909933386  0.6677805489612894
  0.6700851926270630  0.6681196856425728  0.6688322485037332
  0.8850474832314106  0.7779194490090049  0.2213484318921743
  0.2216959047354408  0.7848312731714699  0.2239275629292550
  0.5549577106687167  0.7801431617370653  0.2207689019614278
  0.8911591856876626  0.1094500480766385  0.2250527329311893
  0.2228513747822092  0.1146079814694474  0.2228045657940356
  0.5534052767622128  0.1160582144046813  0.2214351096421439
  0.8848825781494227  0.4466077392715277  0.2221834763727699
  0.2236290387690900  0.4430052885185276  0.2251806149019870
  0.5518187015399931  0.4474962503388298  0.2233419306201654
  0.8904687433430141  0.7724884805453271  0.5534164510307491
  0.2269944064229108  0.7837277591071015  0.5562028408508297
  0.5564692791455244  0.7726292995275585  0.5569982708822181
  0.8837374187483178  0.1093834886441911  0.5551887390437216
  0.2227144388259177  0.1129025365035048  0.5554873898327628
  0.5533848566845876  0.1036317581158031  0.5537756987147802
  0.8940378763214625  0.4439439774564988  0.5589367499366418
  0.2380010649471771  0.4543786999949404  0.5582528826989943
  0.5621243109283185  0.4408056006854579  0.5537246813646775
  0.8879113803071164  0.7720204661465289  0.8886849586847347
  0.2179844125456469  0.7773322245083563  0.8893176426622986
  0.5632527809615624  0.7759794419043615  0.8894543211001249
  0.8958306797040052  0.1095397234716842  0.8899855669495764
  0.2273285082101921  0.1080021002688838  0.8878894364660823
  0.5525073056699910  0.1147520573550835  0.8942290013249377
  0.8835967746856070  0.4381626308765263  0.8876165420466720
  0.2291132584837285  0.4548072166257384  0.8904654550497995
  0.5604764775075495  0.4456725812014284  0.8909058511133310
  0.1148971887901808  0.8928557129060195  0.1107114567748226
  0.4392589427651430  0.8889051430622033  0.1100340305359424
  0.7703849289420219  0.8948865942586295  0.1110748794455887
  0.1131787025069499  0.2218070491637718  0.1095663954950226
  0.4429396017670157  0.2249757768136220  0.1107062638954659
  0.7489071978460444  0.2041702625809805  0.1056581715163958
  0.1083475308108390  0.5533109244905532  0.1130767855019030
  0.4376863247368377  0.5577298660641290  0.1093514435961325
  0.7755676760505210  0.5390695995831436  0.1117495774074371
  0.1056238802743081  0.8794679694279282  0.4464065578441776
  0.4376537167457357  0.8873385371420213  0.4443668377599579
  0.7803660852871630  0.8906946023701465  0.4436577989576023
  0.1038758022130111  0.2294214454787564  0.4458054504594955
  0.4576997061868582  0.2296271412496935  0.4465147459678462
  0.7791599385730734  0.2202148719568626  0.4413270274314627
  0.1121237192845470  0.5504643359068737  0.4415065488873253
  0.4432951954467654  0.5555765066326472  0.4452405350280202
  0.7805739122119348  0.5553794939067700  0.4466188173298988
  0.1155074771176885  0.8852791961389457  0.7787961041619624
  0.4438367598772288  0.8909575538574686  0.7762870240000836
  0.7815731675750826  0.8819111560044632  0.7758092070615419
  0.1038623099936089  0.2137180591125940  0.7781500299191748
  0.4524835177765709  0.2483464767580870  0.7724102359990397
  0.7669071382100654  0.2211201885862337  0.7739105634499310
  0.1166146635192717  0.5574119154465365  0.7785933797858959
  0.4483443350717096  0.5646791038608043  0.7795234461284579
  0.7805370270313716  0.5518899749608792  0.7747855916057844
 
  0.00000000E+00  0.00000000E+00  0.00000000E+00
  0.00000000E+00  0.00000000E+00  0.00000000E+00
  0.00000000E+00  0.00000000E+00  0.00000000E+00
  0.00000000E+00  0.00000000E+00  0.00000000E+00
  0.00000000E+00  0.00000000E+00  0.00000000E+00
  0.00000000E+00  0.00000000E+00  0.00000000E+00
  0.00000000E+00  0.00000000E+00  0.00000000E+00
  0.00000000E+00  0.00000000E+00  0.00000000E+00
  0.00000000E+00  0.00000000E+00  0.00000000E+00
  0.00000000E+00  0.00000000E+00  0.00000000E+00
  0.00000000E+00  0.00000000E+00  0.00000000E+00
  0.00000000E+00  0.00000000E+00  0.00000000E+00
  0.00000000E+00  0.00000000E+00  0.00000000E+00
  0.00000000E+00  0.00000000E+00  0.00000000E+00
  0.00000000E+00  0.00000000E+00  0.00000000E+00
  0.00000000E+00  0.00000000E+00  0.00000000E+00
  0.00000000E+00  0.00000000E+00  0.00000000E+00
  0.00000000E+00  0.00000000E+00  0.00000000E+00
  0.00000000E+00  0.00000000E+00  0.00000000E+00
  0.00000000E+00  0.00000000E+00  0.00000000E+00
  0.00000000E+00  0.00000000E+00  0.00000000E+00
  0.00000000E+00  0.00000000E+00  0.00000000E+00
  0.00000000E+00  0.00000000E+00  0.00000000E+00
  0.00000000E+00  0.00000000E+00  0.00000000E+00
  0.00000000E+00  0.00000000E+00  0.00000000E+00
  0.00000000E+00  0.00000000E+00  0.00000000E+00
  0.00000000E+00  0.00000000E+00  0.00000000E+00
  0.00000000E+00  0.00000000E+00  0.00000000E+00
  0.00000000E+00  0.00000000E+00  0.00000000E+00
  0.00000000E+00  0.00000000E+00  0.00000000E+00
  0.00000000E+00  0.00000000E+00  0.00000000E+00
  0.00000000E+00  0.00000000E+00  0.00000000E+00
  0.00000000E+00  0.00000000E+00  0.00000000E+00
  0.00000000E+00  0.00000000E+00  0.00000000E+00
  0.00000000E+00  0.00000000E+00  0.00000000E+00
  0.00000000E+00  0.00000000E+00  0.00000000E+00
  0.00000000E+00  0.00000000E+00  0.00000000E+00
  0.00000000E+00  0.00000000E+00  0.00000000E+00
  0.00000000E+00  0.00000000E+00  0.00000000E+00
  0.00000000E+00  0.00000000E+00  0.00000000E+00
  0.00000000E+00  0.00000000E+00  0.00000000E+00
  0.00000000E+00  0.00000000E+00  0.00000000E+00
  0.00000000E+00  0.00000000E+00  0.00000000E+00
  0.00000000E+00  0.00000000E+00  0.00000000E+00
  0.00000000E+00  0.00000000E+00  0.00000000E+00
  0.00000000E+00  0.00000000E+00  0.00000000E+00
  0.00000000E+00  0.00000000E+00  0.00000000E+00
  0.00000000E+00  0.00000000E+00  0.00000000E+00
  0.00000000E+00  0.00000000E+00  0.00000000E+00
  0.00000000E+00  0.00000000E+00  0.00000000E+00
  0.00000000E+00  0.00000000E+00  0.00000000E+00
  0.00000000E+00  0.00000000E+00  0.00000000E+00
  0.00000000E+00  0.00000000E+00  0.00000000E+00
  0.00000000E+00  0.00000000E+00  0.00000000E+00
  0.00000000E+00  0.00000000E+00  0.00000000E+00
  0.00000000E+00  0.00000000E+00  0.00000000E+00
  0.00000000E+00  0.00000000E+00  0.00000000E+00
  0.00000000E+00  0.00000000E+00  0.00000000E+00
  0.00000000E+00  0.00000000E+00  0.00000000E+00
  0.00000000E+00  0.00000000E+00  0.00000000E+00
  0.00000000E+00  0.00000000E+00  0.00000000E+00
  0.00000000E+00  0.00000000E+00  0.00000000E+00
  0.00000000E+00  0.00000000E+00  0.00000000E+00
  0.00000000E+00  0.00000000E+00  0.00000000E+00
  0.00000000E+00  0.00000000E+00  0.00000000E+00
  0.00000000E+00  0.00000000E+00  0.00000000E+00
  0.00000000E+00  0.00000000E+00  0.00000000E+00
  0.00000000E+00  0.00000000E+00  0.00000000E+00
  0.00000000E+00  0.00000000E+00  0.00000000E+00
  0.00000000E+00  0.00000000E+00  0.00000000E+00
  0.00000000E+00  0.00000000E+00  0.00000000E+00
  0.00000000E+00  0.00000000E+00  0.00000000E+00
  0.00000000E+00  0.00000000E+00  0.00000000E+00
  0.00000000E+00  0.00000000E+00  0.00000000E+00
  0.00000000E+00  0.00000000E+00  0.00000000E+00
  0.00000000E+00  0.00000000E+00  0.00000000E+00
  0.00000000E+00  0.00000000E+00  0.00000000E+00
  0.00000000E+00  0.00000000E+00  0.00000000E+00
  0.00000000E+00  0.00000000E+00  0.00000000E+00
  0.00000000E+00  0.00000000E+00  0.00000000E+00
  0.00000000E+00  0.00000000E+00  0.00000000E+00
  0.00000000E+00  0.00000000E+00  0.00000000E+00
  0.00000000E+00  0.00000000E+00  0.00000000E+00
  0.00000000E+00  0.00000000E+00  0.00000000E+00
  0.00000000E+00  0.00000000E+00  0.00000000E+00
  0.00000000E+00  0.00000000E+00  0.00000000E+00
  0.00000000E+00  0.00000000E+00  0.00000000E+00
  0.00000000E+00  0.00000000E+00  0.00000000E+00
  0.00000000E+00  0.00000000E+00  0.00000000E+00
  0.00000000E+00  0.00000000E+00  0.00000000E+00
  0.00000000E+00  0.00000000E+00  0.00000000E+00
  0.00000000E+00  0.00000000E+00  0.00000000E+00
  0.00000000E+00  0.00000000E+00  0.00000000E+00
  0.00000000E+00  0.00000000E+00  0.00000000E+00
  0.00000000E+00  0.00000000E+00  0.00000000E+00
  0.00000000E+00  0.00000000E+00  0.00000000E+00
  0.00000000E+00  0.00000000E+00  0.00000000E+00
  0.00000000E+00  0.00000000E+00  0.00000000E+00
  0.00000000E+00  0.00000000E+00  0.00000000E+00
  0.00000000E+00  0.00000000E+00  0.00000000E+00
  0.00000000E+00  0.00000000E+00  0.00000000E+00
  0.00000000E+00  0.00000000E+00  0.00000000E+00
  0.00000000E+00  0.00000000E+00  0.00000000E+00
  0.00000000E+00  0.00000000E+00  0.00000000E+00
  0.00000000E+00  0.00000000E+00  0.00000000E+00
  0.00000000E+00  0.00000000E+00  0.00000000E+00
  0.00000000E+00  0.00000000E+00  0.00000000E+00
  0.00000000E+00  0.00000000E+00  0.00000000E+00
  0.00000000E+00  0.00000000E+00  0.00000000E+00
  0.00000000E+00  0.00000000E+00  0.00000000E+00
  0.00000000E+00  0.00000000E+00  0.00000000E+00
  0.00000000E+00  0.00000000E+00  0.00000000E+00
  0.00000000E+00  0.00000000E+00  0.00000000E+00
  0.00000000E+00  0.00000000E+00  0.00000000E+00
  0.00000000E+00  0.00000000E+00  0.00000000E+00
  0.00000000E+00  0.00000000E+00  0.00000000E+00
  0.00000000E+00  0.00000000E+00  0.00000000E+00
  0.00000000E+00  0.00000000E+00  0.00000000E+00
  0.00000000E+00  0.00000000E+00  0.00000000E+00
  0.00000000E+00  0.00000000E+00  0.00000000E+00
  0.00000000E+00  0.00000000E+00  0.00000000E+00
  0.00000000E+00  0.00000000E+00  0.00000000E+00
  0.00000000E+00  0.00000000E+00  0.00000000E+00
  0.00000000E+00  0.00000000E+00  0.00000000E+00
  0.00000000E+00  0.00000000E+00  0.00000000E+00
  0.00000000E+00  0.00000000E+00  0.00000000E+00
  0.00000000E+00  0.00000000E+00  0.00000000E+00
  0.00000000E+00  0.00000000E+00  0.00000000E+00
  0.00000000E+00  0.00000000E+00  0.00000000E+00
  0.00000000E+00  0.00000000E+00  0.00000000E+00
  0.00000000E+00  0.00000000E+00  0.00000000E+00
  0.00000000E+00  0.00000000E+00  0.00000000E+00
  0.00000000E+00  0.00000000E+00  0.00000000E+00
  0.00000000E+00  0.00000000E+00  0.00000000E+00
  0.00000000E+00  0.00000000E+00  0.00000000E+00
