Global Parameters
ISTART =  1            (Read existing wavefunction, if there)
ISPIN  =  1            (Non-Spin polarised DFT)
ICHARG =  11
LORBIT = 11
NEDOS = 2001        
LREAL  = Auto       (Projection operators: automatic)
ENCUT  =  450        (Cut-off energy for plane wave basis set, in eV)
PREC   =  Accurate
LWAVE  = .False.        (Write WAVECAR or not)
LCHARG = .False.        (Write CHGCAR or not)
ADDGRID= .TRUE.        (Increase grid, helps GGA convergence)
LELF = .TRUE.
NCORE=8
IVDW=12
ALGO= Fast
PREC = Accurate
Electronic Relaxation
ISMEAR =  -5            (Gaussian smearing, metals:1)
SIGMA  =  0.05         (Smearing value in eV, metals:0.2)
NELM   =  100           (Max electronic SCF steps)
NELMIN =  4            (Min electronic SCF steps)
EDIFF  =  1E-08        (SCF energy convergence, in eV)
# GGA  =  PS           (PBEsol exchange-correlation)
 
Ionic Relaxation
NSW    =  0          (Max ionic steps)
IBRION =  -1            (Algorithm: 0-MD, 1-Quasi-New, 2-CG)
ISIF   =  3            (Stress/relaxation: 2-Ions, 3-Shape/Ions/V, 4-Shape/Ions)
EDIFFG = -2E-02        (Ionic convergence, eV/AA)
# ISYM =  2            (Symmetry: 0=none, 2=GGA, 3=hybrids)
