Y8 Sb46 Te81                            
   1.00000000000000     
    13.3696666956668277    0.0211780677536473   -0.0032305071930911
    -6.6663494448364577   11.4978522399489727   -0.0033907556389486
    -0.0176921439835284   -0.0106443788315265   31.6946395531418794
   Y    Sb   Te
     8    46    81
Direct
  0.5583368243531990  0.7835140959604127  0.7210760949354647
  0.4456710003420871  0.5570162206305150  0.9460873704602165
  0.1058734358601948  0.8966083526613877  0.2772346937884665
  0.8836863376307222  0.1044788228956363  0.7228335031544798
  0.0046573030721005  0.6560338650552014  0.5011452930727667
  0.2253522812258776  0.1125920027885817  0.0552754494447128
  0.6814873489218871  0.3350813578527432  0.5025361221088359
  0.1198503682733380  0.2249041724929778  0.9406928564561483
  0.2366950902401566  0.7834192454606967  0.7200573794336796
  0.4367858500245200  0.2181708596610000  0.2743948713636073
  0.7754486545868372  0.5623945262623454  0.2737479718829372
  0.8973997005726355  0.7728219064954683  0.7216730367848330
  0.2189747649183335  0.7865203010644107  0.0588378002566900
  0.3337250473077214  0.0055850295025372  0.1634931408713631
  0.8958502583953292  0.4346066444835812  0.3897259008521085
  0.6644945727739751  0.9900386911653446  0.5110218592698583
  0.1124137210140760  0.5502879075290765  0.2771685359839939
  0.3334561974998480  0.3353969723533716  0.1550528393667132
  0.3323471893835606  0.6656483104998127  0.8272806611538664
  0.6847098293817372  0.9984278651440170  0.1677501686541731
  0.6538907613531856  0.6617897328647599  0.4993736234314426
  0.2172162716934772  0.7653160835753314  0.3916375645726410
  0.2209027091246734  0.4361745809058831  0.0523062829598854
  0.8676831376577409  0.4331267292386337  0.7175054096387097
  0.2285884484557174  0.4486466651647455  0.7168115018413127
  0.9787527321922425  0.6422273590912816  0.1626243460702222
  0.4448826441422927  0.8936706347620326  0.2776221104458388
  0.7731138132401800  0.8867619676621871  0.9456022054799132
  0.7634247785705438  0.8805212698975856  0.6166714182854558
  0.3375396392368289  0.6683856668612385  0.1633338225852513
  0.2296510414713346  0.1186931831547213  0.7239116909699074
  0.4324503436883684  0.5365937980959222  0.2766626434471952
  0.6622788855798605  0.3146723979420963  0.8418388784835907
  0.6612626086889649  0.6627186338248009  0.8381094733983518
  0.8507529110066460  0.0966896726334254  0.0584195125262219
  0.5583602127519114  0.1188537101128035  0.3943605719493867
  0.5462628044099317  0.1374567777268860  0.7245310413063152
  0.7802589395510210  0.2109687563556071  0.2803383741687914
  0.1162657902568573  0.8877981404624350  0.6075732983772727
  0.1391370147337741  0.2508016354467605  0.6091611269981958
  0.7524145346451959  0.2099136618035232  0.9472652159541601
  0.7694712602923776  0.5523538092981023  0.9486259411227087
  0.1243606873833951  0.5688135410895888  0.9464572559721869
  0.1276022597596705  0.9041664157538191  0.9465988233837528
  0.9996482238643958  0.0256068630434107  0.4973836404997525
  0.7775790439638853  0.5496136653230573  0.6030939902245399
  0.5408459068740621  0.4404247613791660  0.3872911459852909
  0.8706748246586136  0.4361274575828792  0.0579159565211603
  0.0147579262423326  0.0145536075902958  0.8375352026298112
  0.8912706476369505  0.7918109374589721  0.3892981312447131
  0.3060984694844858  0.3433071326535878  0.4967002167526633
  0.7898558165420559  0.8982620325017081  0.2784683775144398
  0.3395914851327377  0.9916991710735981  0.5021302007220110
  0.0033909887282020  0.6643797526287435  0.8331282521019898
  0.0071356915512123  0.0090055926854864 -0.0018887000607250
  0.3313437661658180  0.9981193663800971  0.0000873882826318
  0.6580014073455941  0.9894878774823787  0.9966829298064240
  0.0044506419081283  0.3310984664796648  0.9964969339896695
  0.3360509077720207  0.3368169185319871  0.0019619605976115
  0.6665378747473114  0.3322906045522217  0.0009667816262651
 -0.0008715464377353  0.6657674128230356  0.0010124992217492
  0.3328949885949211  0.6675517861071557  0.9994465072115541
  0.6664366157556277  0.6666520174474283  0.9990107191420730
  0.9931566294746802  0.0009201248520881  0.3344925269331027
  0.3282130863390600  0.9998900749622873  0.3318612194329136
  0.6659747060036918  0.0003301878754436  0.3314146896799689
  0.9976122686902186  0.3347297930764420  0.3315177633137553
  0.3346015687712904  0.3360605652412763  0.3340980171660896
  0.6668639517755903  0.3335420452650700  0.3326378552447970
  0.0003858135161553  0.6684510117643622  0.3310468989585018
  0.3303122309408036  0.6704898944170834  0.3330420183027485
  0.6680331754571921  0.6688860966968342  0.3354284615582317
  0.0007505250429442  0.0000657368298321  0.6689265231645823
  0.3302655739710287 -0.0002815910435818  0.6656608877570840
  0.6700765717597739  0.0008304433702205  0.6645344468676024
  0.0113227474784018  0.3325043066617223  0.6693350331496539
  0.3321741735344786  0.3295822529173604  0.6685997852187493
  0.6798112120474921  0.3188061252174497  0.6605716536119673
  0.0051671201871485  0.6647546511951155  0.6650288927535385
  0.3328320918077285  0.6614662909933383  0.6677805489612894
  0.6700851926270605  0.6681196856425716  0.6688322485037352
  0.8850474832314077  0.7779194490090028  0.2213484318921738
  0.2216959047354442  0.7848312731714667  0.2239275629292556
  0.5549577106687142  0.7801431617370664  0.2207689019614305
  0.8911591856876616  0.1094500480766404  0.2250527329311882
  0.2228513747822117  0.1146079814694464  0.2228045657940387
  0.5534052767622100  0.1160582144046782  0.2214351096421415
  0.8848825781494236  0.4466077392715252  0.2221834763727687
  0.2236290387690912  0.4430052885185291  0.2251806149019894
  0.5518187015399948  0.4474962503388307  0.2233419306201686
  0.8904687433430110  0.7724884805453260  0.5534164510307463
  0.2269944064229135  0.7837277591071032  0.5562028408508326
  0.5564692791455250  0.7726292995275581  0.5569982708822152
  0.8837374187483190  0.1093834886441905  0.5551887390437236
  0.2227144388259158  0.1129025365035028  0.5554873898327618
  0.5533848566845891  0.1036317581158065  0.5537756987147823
  0.8940378763214646  0.4439439774564987  0.5589367499366388
  0.2380010649471779  0.4543786999949425  0.5582528826989955
  0.5621243109283167  0.4408056006854564  0.5537246813646757
  0.8879113803071194  0.7720204661465299  0.8886849586847366
  0.2179844125456465  0.7773322245083576  0.8893176426622957
  0.5632527809615615  0.7759794419043613  0.8894543211001225
  0.8958306797040044  0.1095397234716820  0.8899855669495783
  0.2273285082101956  0.1080021002688868  0.8878894364660789
  0.5525073056699892  0.1147520573550830  0.8942290013249365
  0.8835967746856042  0.4381626308765288  0.8876165420466700
  0.2291132584837278  0.4548072166257410  0.8904654550497968
  0.5604764775075529  0.4456725812014264  0.8909058511133319
  0.1148971887901785  0.8928557129060209  0.1107114567748231
  0.4392589427651454  0.8889051430622043  0.1100340305359413
  0.7703849289420222  0.8948865942586325  0.1110748794455854
  0.1131787025069474  0.2218070491637697  0.1095663954950241
  0.4429396017670146  0.2249757768136190  0.1107062638954660
  0.7489071978460413  0.2041702625809775  0.1056581715163945
  0.1083475308108418  0.5533109244905551  0.1130767855019031
  0.4376863247368408  0.5577298660641314  0.1093514435961293
  0.7755676760505233  0.5390695995831468  0.1117495774074386
  0.1056238802743064  0.8794679694279305  0.4464065578441756
  0.4376537167457336  0.8873385371420234  0.4443668377599588
  0.7803660852871648  0.8906946023701475  0.4436577989576013
  0.1038758022130089  0.2294214454787538  0.4458054504594957
  0.4576997061868605  0.2296271412496960  0.4465147459678471
  0.7791599385730724  0.2202148719568592  0.4413270274314597
  0.1121237192845484  0.5504643359068704  0.4415065488873259
  0.4432951954467629  0.5555765066326437  0.4452405350280229
  0.7805739122119332  0.5553794939067700  0.4466188173299017
  0.1155074771176907  0.8852791961389451  0.7787961041619652
  0.4438367598772264  0.8909575538574687  0.7762870240000866
  0.7815731675750811  0.8819111560044602  0.7758092070615412
  0.1038623099936054  0.2137180591125935  0.7781500299191771
  0.4524835177765683  0.2483464767580838  0.7724102359990405
  0.7669071382100623  0.2211201885862360  0.7739105634499329
  0.1166146635192683  0.5574119154465350  0.7785933797858966
  0.4483443350717102  0.5646791038608009  0.7795234461284561
  0.7805370270313700  0.5518899749608794  0.7747855916057856
